100
120
99
97
97
97
96
95
94
94
93
93
93
91
90
89
88
86
84
83
83
83
82
82
81
81
81
80
78
78
78
77
75
75
74
73
73
73
73
71
71
71
70
69
69
68
68
67
66
65
64
64
63
63
63
63
62
62
61
60
59
58
57
57
57
57
56
55
54
54
53
52
52
52
52
50
50
49
49
49
48
48
46
45
45
44
44
42
39
39
37
34
34
34
34
33
33
32
31
31
30
30
